(set-info :smt-lib-version 2.6)
(set-logic QF_UFNIA)
(set-info :source |
Generated by: Geoff Sutcliffe
Generated on: 2026-03-11
Generator: TPTPWorld
Application: Benchmarking automated theorem provers
Time limit: 120.0

These benchmarks are translations from the TPTP Library (Thousands of
Problems for Theorem Provers), see http://www.cs.miami.edu/~tptp/

The TPTP is maintained by Geoff Sutcliffe, and he contributed this
selection of benchmarks to SMT-LIB.  They were exported from the
v9.2.1 realease of TPTP.
|)
(set-info :category "industrial")
(set-info :status "unknown")
; SZS status Success
(declare-sort $$unsorted 0)
(declare-fun tptp.a () Int)
(declare-fun tptp.b () Int)
(declare-fun tptp.c () Int)
(declare-fun tptp.d () Int)
(assert (let ((_let_1 (+ tptp.a tptp.b))) (= (+ (+ (+ (* tptp.a tptp.a) (* (* _let_1 (+ (+ tptp.c tptp.d) 1)) (+ tptp.a 2))) tptp.b) (* (- 1) (* (+ (+ _let_1 tptp.c) tptp.d) (+ 2 tptp.c)))) 0)))
(assert (let ((_let_1 (* tptp.d tptp.a))) (let ((_let_2 (* tptp.c tptp.b))) (let ((_let_3 (* tptp.d tptp.b))) (let ((_let_4 (* tptp.c tptp.a))) (not (= (+ (* _let_3 tptp.a) (* (- 1) (+ (+ (+ (+ (+ (+ (+ (+ (+ (+ (+ (- (+ (* (- 2) (* tptp.a tptp.a)) (* (- 1) _let_4)) tptp.b) (* (- 1) (* tptp.b tptp.a))) (* 2 tptp.c)) (* (- 1) _let_2)) (* tptp.c tptp.c)) (* (- 1) (* _let_4 tptp.a))) (* (- 1) (* 2 _let_1))) (* (- 1) (* 2 _let_3))) (* (- 1) (* _let_2 tptp.a))) (* tptp.d tptp.c)) (* (- 1) (* _let_1 tptp.a))) (* 2 tptp.d)))) 0)))))))
(check-sat)
